NAME : n20w180.002.265.tour
COMMENT : Length = 265
COMMENT : Found by LKH [Keld Helsgaun] Tue May  2 05:19:04 2017
TYPE : TOUR
DIMENSION : 21
TOUR_SECTION
1
17
2
13
19
14
10
7
18
6
4
11
16
5
20
8
12
21
15
3
9
-1
EOF
